25
    1     5     5
    2    14    14
    3     6     6
    4     6     6
    5     8     8
    6    16    16
    7     1     1
    8    12    12
    9     2     2
   10     9     9
   11    15    15
   12    17    17
   13     3     3
   14    17    17
   15     5     5
   16    15    15
   17    15    15
   18     6     6
   19    12    12
   20     2     2
   21     9     9
   22    11    11
   23     1     1
   24    19    19
   25     2     2
21
